
Gurobi 13.0.2 (win64) logging started Thu Jul 23 17:25:32 2026

Set parameter LogFile to value "E:\codes\ExactEBRP\results\gf_gurobi_performance_recovery_round29\runs\stage2__tight_T_seed5103__c3_replica__300s\external\native_logs\R.0.1.0.1.0.1.0.0.1.1_terminal_mip.gurobi.log"
Gurobi Optimizer version 13.0.2 build v13.0.2rc1 (win64 - Windows 10.0 (19045.2))

CPU model: 12th Gen Intel(R) Core(TM) i7-12700KF, instruction set [SSE2|AVX|AVX2]
Thread count: 12 physical cores, 20 logical processors, using up to 1 threads

Non-default parameters:
TimeLimit  241.2891578
MIPGap  0
MIPGapAbs  0
LogToConsole  0
Threads  1

Optimize a model with 11911 rows, 3376 columns and 67363 nonzeros (Min)
Model fingerprint: 0xb241adf5
Model has 21 linear objective coefficients
Variable types: 1685 continuous, 1691 integer (1491 binary)
Coefficient statistics:
  Matrix range     [7e-03, 2e+04]
  Objective range  [7e-03, 1e+00]
  Bounds range     [9e-02, 3e+02]
  RHS range        [5e-02, 5e+04]

Presolve removed 1619 rows and 114 columns
Presolve time: 0.22s
Presolved: 10292 rows, 3262 columns, 68544 nonzeros
Variable types: 1626 continuous, 1636 integer (1454 binary)

Root relaxation: infeasible, 2935 iterations, 0.16 seconds (0.41 work units)

    Nodes    |    Current Node    |     Objective Bounds      |     Work
 Expl Unexpl |  Obj  Depth IntInf | Incumbent    BestBd   Gap | It/Node Time

     0     0 infeasible    0               - infeasible      -     -    0s

Explored 1 nodes (2935 simplex iterations) in 0.42 seconds (0.88 work units)
Thread count was 1 (of 20 available processors)

Solution count 0

Model is infeasible
Best objective -, best bound -, gap -

User-callback calls 844, time in user-callback 0.00 sec
